(declare-fun b24 () (_ FloatingPoint 11 53))
(declare-fun b28 () (_ FloatingPoint 11 53))
(declare-fun b21 () (_ FloatingPoint 11 53))
(declare-fun b41 () (_ FloatingPoint 11 53))
(declare-fun b8 () (_ FloatingPoint 11 53))
(declare-fun b11 () (_ FloatingPoint 11 53))
(declare-fun b9 () (_ FloatingPoint 11 53))
(declare-fun b19 () (_ FloatingPoint 11 53))
(declare-fun b38 () (_ FloatingPoint 11 53))
(declare-fun b31 () (_ FloatingPoint 11 53))
(declare-fun b15 () (_ FloatingPoint 11 53))
(assert (let ((.def_38 (fp.leq b41 b19)))
(let ((.def_35 (fp.leq b19 b38)))
(let ((.def_31 (fp.leq b31 b11)))
(let ((.def_29 (fp.leq b11 b28)))
(let ((.def_27 (fp.leq b31 b8)))
(let ((.def_24 (fp.leq b8 b28)))
(let ((.def_21 (fp.leq b24 b9)))
(let ((.def_15 (fp.add RNE b9 b8)))
(let ((.def_13 (fp.add RNE b9 b11)))
(let ((.def_16 (fp.mul RNE .def_13 .def_15)))
(let ((.def_18 (fp.lt b15 .def_16)))
(let ((.def_11 (fp.leq b9 b21)))
(let ((.def_19 (and .def_11 .def_18)))
(let ((.def_22 (and .def_19 .def_21)))
(let ((.def_25 (and .def_22 .def_24)))
(let ((.def_28 (and .def_25 .def_27)))
(let ((.def_30 (and .def_28 .def_29)))
(let ((.def_32 (and .def_30 .def_31)))
(let ((.def_36 (and .def_32 .def_35)))
(let ((.def_39 (and .def_36 .def_38)))
.def_39)))))))))))))))))))))
(check-sat)
